p edges 640 1433
e 1 10
e 1 16
e 1 635
e 2 13
e 2 17
e 2 152
e 2 595
e 3 7
e 3 299
e 4 30
e 4 502
e 5 14
e 6 11
e 6 24
e 8 31
e 8 39
e 8 47
e 8 59
e 8 73
e 8 255
e 8 266
e 8 332
e 8 459
e 8 488
e 8 579
e 9 15
e 9 113
e 10 16
e 10 76
e 10 268
e 11 24
e 11 77
e 12 21
e 12 199
e 12 306
e 13 17
e 13 399
e 15 85
e 16 312
e 16 639
e 17 366
e 18 29
e 18 88
e 18 204
e 19 313
e 19 343
e 20 409
e 20 513
e 21 551
e 22 51
e 22 56
e 22 259
e 22 411
e 22 463
e 22 492
e 22 583
e 23 27
e 23 412
e 23 552
e 25 35
e 25 43
e 25 55
e 25 230
e 25 467
e 25 568
e 27 570
e 28 57
e 28 232
e 28 469
e 29 218
e 29 246
e 30 435
e 30 524
e 31 39
e 31 47
e 31 59
e 31 219
e 31 234
e 31 471
e 31 613
e 32 40
e 32 48
e 32 103
e 32 148
e 32 444
e 32 473
e 32 634
e 33 41
e 33 54
e 33 149
e 33 221
e 33 287
e 33 293
e 33 445
e 33 474
e 34 42
e 34 49
e 34 150
e 34 222
e 34 446
e 34 475
e 34 632
e 35 43
e 35 55
e 35 151
e 35 289
e 35 295
e 35 385
e 35 447
e 35 476
e 35 591
e 36 44
e 36 50
e 36 63
e 36 290
e 36 328
e 36 448
e 36 477
e 36 500
e 37 45
e 37 52
e 37 65
e 37 291
e 37 297
e 37 449
e 37 478
e 37 598
e 38 46
e 38 53
e 38 58
e 38 187
e 38 300
e 38 450
e 38 479
e 39 47
e 39 59
e 39 107
e 39 386
e 39 451
e 39 480
e 40 48
e 40 154
e 40 192
e 40 452
e 40 481
e 41 54
e 41 193
e 41 301
e 41 333
e 41 390
e 41 453
e 41 482
e 42 49
e 42 71
e 42 334
e 42 454
e 42 483
e 43 55
e 43 72
e 43 394
e 43 455
e 43 484
e 44 50
e 44 156
e 44 196
e 44 335
e 44 456
e 44 485
e 45 52
e 45 111
e 45 336
e 45 396
e 45 457
e 45 486
e 45 546
e 46 53
e 46 58
e 46 115
e 46 265
e 46 271
e 46 458
e 46 487
e 46 547
e 47 59
e 47 73
e 47 116
e 47 266
e 47 272
e 47 332
e 47 459
e 47 488
e 48 84
e 48 121
e 48 273
e 48 277
e 48 361
e 48 407
e 48 460
e 48 489
e 49 78
e 49 124
e 49 200
e 49 202
e 49 461
e 49 490
e 50 86
e 50 162
e 50 316
e 50 344
e 50 363
e 50 462
e 50 491
e 51 56
e 51 274
e 51 403
e 51 411
e 51 463
e 51 492
e 51 602
e 51 640
e 52 80
e 52 280
e 52 364
e 52 368
e 52 464
e 52 493
e 53 58
e 53 83
e 53 165
e 53 406
e 53 465
e 53 494
e 54 136
e 54 215
e 54 229
e 54 346
e 54 466
e 55 140
e 55 170
e 55 230
e 55 349
e 55 467
e 55 516
e 55 562
e 55 566
e 55 568
e 56 227
e 56 231
e 56 283
e 56 424
e 56 430
e 56 468
e 56 472
e 57 174
e 57 211
e 57 232
e 57 469
e 57 605
e 58 95
e 58 146
e 58 183
e 58 212
e 58 233
e 58 241
e 58 470
e 58 612
e 59 147
e 59 178
e 59 219
e 59 234
e 59 285
e 59 351
e 59 425
e 59 471
e 59 613
e 60 81
e 60 626
e 61 88
e 61 627
e 62 91
e 63 86
e 63 252
e 63 290
e 63 324
e 63 373
e 63 448
e 63 477
e 63 576
e 64 68
e 64 87
e 64 185
e 65 80
e 65 253
e 65 291
e 65 325
e 65 374
e 65 449
e 65 478
e 65 577
e 66 97
e 66 388
e 67 69
e 67 85
e 67 499
e 68 87
e 69 85
e 69 302
e 69 391
e 70 76
e 70 155
e 70 189
e 71 78
e 71 250
e 71 454
e 71 483
e 71 574
e 72 251
e 72 455
e 72 484
e 72 575
e 73 89
e 73 255
e 73 266
e 73 332
e 73 459
e 73 488
e 73 579
e 74 92
e 74 267
e 75 93
e 75 195
e 75 545
e 76 268
e 77 79
e 77 94
e 77 98
e 78 200
e 78 378
e 78 437
e 78 461
e 78 490
e 79 94
e 79 98
e 79 276
e 79 401
e 80 364
e 80 381
e 80 440
e 80 464
e 80 493
e 81 309
e 82 90
e 82 402
e 83 95
e 83 382
e 83 441
e 83 465
e 83 494
e 84 96
e 84 256
e 84 460
e 84 489
e 84 580
e 86 258
e 86 462
e 86 491
e 86 582
e 87 404
e 88 204
e 89 205
e 89 342
e 90 164
e 90 281
e 91 127
e 92 319
e 93 418
e 93 442
e 94 98
e 95 212
e 95 233
e 95 241
e 95 470
e 97 216
e 98 432
e 99 128
e 99 586
e 100 110
e 100 139
e 100 628
e 101 129
e 101 540
e 101 629
e 102 104
e 102 120
e 102 143
e 102 588
e 102 630
e 103 121
e 103 135
e 103 248
e 103 320
e 103 369
e 103 444
e 103 473
e 103 572
e 104 120
e 104 143
e 104 184
e 104 592
e 105 131
e 106 144
e 106 501
e 107 116
e 107 147
e 107 255
e 107 451
e 107 480
e 107 579
e 108 117
e 108 330
e 109 138
e 109 303
e 109 503
e 110 139
e 110 392
e 111 133
e 111 253
e 111 457
e 111 486
e 111 577
e 112 125
e 112 505
e 113 123
e 114 126
e 115 146
e 115 271
e 115 458
e 115 487
e 115 547
e 116 147
e 116 272
e 116 459
e 116 488
e 117 397
e 117 548
e 118 137
e 118 638
e 119 140
e 120 143
e 120 341
e 121 135
e 121 256
e 121 277
e 121 407
e 121 460
e 121 489
e 121 580
e 122 136
e 122 160
e 122 549
e 123 314
e 123 512
e 123 550
e 124 257
e 124 461
e 124 490
e 124 581
e 125 209
e 125 554
e 127 134
e 129 167
e 129 443
e 130 141
e 130 563
e 131 518
e 131 564
e 132 145
e 132 350
e 132 421
e 132 565
e 133 520
e 133 604
e 134 168
e 134 240
e 135 169
e 135 525
e 135 614
e 136 229
e 136 466
e 136 526
e 136 615
e 138 228
e 139 606
e 140 170
e 140 230
e 140 467
e 140 528
e 140 566
e 140 617
e 141 353
e 141 423
e 142 172
e 142 529
e 142 618
e 143 213
e 144 607
e 145 567
e 145 608
e 146 233
e 146 470
e 146 533
e 146 622
e 147 178
e 147 234
e 147 285
e 147 425
e 147 471
e 147 534
e 147 623
e 148 154
e 148 169
e 148 248
e 148 444
e 148 473
e 148 572
e 148 634
e 149 160
e 149 249
e 149 293
e 149 445
e 149 474
e 149 573
e 150 250
e 150 446
e 150 475
e 150 574
e 151 170
e 151 251
e 151 295
e 151 447
e 151 476
e 151 575
e 152 595
e 153 181
e 153 597
e 154 169
e 154 248
e 154 452
e 154 481
e 154 572
e 155 167
e 155 179
e 155 189
e 156 162
e 156 172
e 156 180
e 156 252
e 156 456
e 156 485
e 156 576
e 157 173
e 158 264
e 158 304
e 159 177
e 159 191
e 160 549
e 161 171
e 161 315
e 162 172
e 162 180
e 162 258
e 162 316
e 162 344
e 162 462
e 162 491
e 162 582
e 163 175
e 163 317
e 164 176
e 164 281
e 165 183
e 165 261
e 165 465
e 165 494
e 165 585
e 166 178
e 166 555
e 167 179
e 167 443
e 168 240
e 169 525
e 169 614
e 170 230
e 170 467
e 170 528
e 170 566
e 170 617
e 172 180
e 172 529
e 172 618
e 173 242
e 174 232
e 174 469
e 174 532
e 174 621
e 176 243
e 176 355
e 177 214
e 177 284
e 178 234
e 178 285
e 178 425
e 178 471
e 178 534
e 178 623
e 179 356
e 180 217
e 180 611
e 181 431
e 182 244
e 182 433
e 183 233
e 183 470
e 183 612
e 184 213
e 184 592
e 185 208
e 186 197
e 186 223
e 186 497
e 186 593
e 187 212
e 187 254
e 187 326
e 187 375
e 187 450
e 187 479
e 187 578
e 188 292
e 188 387
e 188 498
e 189 207
e 190 203
e 190 393
e 191 198
e 191 214
e 192 452
e 192 481
e 193 215
e 193 333
e 193 453
e 193 482
e 194 210
e 194 216
e 195 199
e 195 545
e 196 217
e 196 335
e 196 456
e 196 485
e 198 214
e 198 270
e 199 306
e 200 202
e 200 378
e 200 437
e 200 461
e 200 490
e 201 206
e 201 311
e 202 257
e 202 461
e 202 490
e 202 581
e 203 510
e 203 603
e 204 218
e 205 219
e 205 342
e 206 408
e 208 278
e 208 413
e 208 553
e 209 211
e 209 554
e 210 216
e 210 347
e 210 416
e 211 232
e 211 469
e 211 605
e 212 233
e 212 241
e 212 470
e 214 284
e 215 229
e 215 466
e 217 611
e 218 246
e 219 234
e 219 471
e 219 613
e 220 221
e 220 229
e 220 535
e 221 229
e 221 249
e 221 287
e 221 321
e 221 370
e 221 445
e 221 474
e 221 573
e 222 226
e 222 250
e 222 322
e 222 371
e 222 446
e 222 475
e 222 574
e 222 632
e 223 497
e 223 593
e 224 232
e 224 594
e 225 228
e 225 238
e 225 417
e 226 348
e 226 515
e 227 231
e 227 468
e 229 346
e 229 466
e 230 349
e 230 467
e 230 516
e 230 562
e 230 566
e 230 568
e 231 283
e 231 424
e 231 430
e 231 468
e 231 472
e 232 469
e 232 605
e 233 241
e 233 470
e 233 612
e 234 285
e 234 351
e 234 425
e 234 471
e 234 613
e 235 358
e 235 587
e 236 242
e 236 541
e 237 240
e 237 247
e 238 417
e 239 252
e 239 258
e 239 419
e 239 517
e 240 247
e 241 254
e 241 261
e 241 470
e 243 245
e 243 355
e 244 253
e 244 260
e 244 433
e 245 434
e 248 256
e 248 572
e 248 634
e 249 287
e 249 293
e 249 301
e 249 390
e 249 573
e 250 257
e 250 574
e 250 632
e 251 289
e 251 295
e 251 385
e 251 575
e 251 591
e 252 258
e 252 290
e 252 328
e 252 500
e 252 576
e 253 260
e 253 291
e 253 297
e 253 577
e 253 598
e 254 261
e 254 265
e 254 300
e 254 578
e 255 266
e 255 332
e 255 386
e 255 579
e 256 277
e 256 407
e 256 580
e 257 581
e 258 316
e 258 344
e 258 582
e 259 403
e 259 411
e 259 583
e 259 602
e 259 640
e 260 280
e 260 368
e 260 584
e 261 406
e 261 585
e 262 273
e 262 277
e 262 556
e 262 624
e 263 268
e 263 537
e 264 278
e 264 304
e 265 271
e 265 458
e 265 487
e 265 578
e 266 272
e 266 285
e 266 332
e 266 459
e 266 488
e 266 579
e 267 286
e 269 281
e 269 337
e 270 284
e 271 458
e 271 487
e 271 547
e 272 285
e 272 459
e 272 488
e 273 277
e 273 361
e 273 377
e 273 436
e 273 460
e 273 489
e 274 283
e 274 380
e 274 439
e 274 463
e 274 492
e 275 279
e 275 308
e 275 507
e 275 561
e 276 401
e 277 407
e 277 460
e 277 489
e 277 580
e 278 413
e 278 553
e 279 414
e 280 464
e 280 493
e 280 584
e 282 352
e 282 527
e 282 616
e 283 424
e 283 468
e 283 530
e 283 619
e 285 425
e 285 471
e 285 534
e 285 623
e 286 427
e 287 293
e 287 301
e 287 321
e 287 370
e 287 445
e 287 474
e 287 573
e 288 306
e 288 384
e 288 495
e 288 631
e 289 295
e 289 323
e 289 372
e 289 385
e 289 447
e 289 476
e 289 575
e 289 591
e 290 316
e 290 324
e 290 373
e 290 448
e 290 477
e 290 576
e 291 297
e 291 325
e 291 374
e 291 449
e 291 478
e 291 577
e 292 310
e 292 319
e 292 387
e 292 498
e 293 301
e 293 321
e 293 445
e 293 474
e 293 573
e 294 311
e 295 323
e 295 447
e 295 476
e 295 575
e 296 315
e 297 325
e 297 449
e 297 478
e 297 577
e 297 598
e 298 309
e 298 599
e 298 637
e 299 317
e 300 326
e 300 450
e 300 479
e 300 578
e 301 321
e 301 390
e 301 453
e 301 482
e 301 573
e 302 314
e 302 391
e 303 503
e 305 308
e 305 504
e 307 312
e 307 338
e 308 507
e 308 561
e 310 319
e 310 365
e 312 639
e 313 318
e 313 343
e 314 512
e 314 550
e 316 324
e 316 344
e 316 462
e 316 491
e 316 582
e 318 345
e 320 369
e 321 370
e 322 371
e 322 632
e 323 372
e 323 385
e 323 591
e 324 373
e 325 374
e 326 375
e 327 376
e 327 386
e 328 335
e 328 344
e 328 448
e 328 477
e 328 500
e 328 576
e 329 341
e 329 636
e 330 343
e 330 345
e 331 337
e 331 355
e 332 342
e 332 351
e 332 459
e 332 488
e 332 579
e 333 346
e 333 453
e 333 482
e 334 348
e 334 352
e 334 454
e 334 483
e 335 344
e 335 456
e 335 485
e 336 354
e 336 396
e 336 457
e 336 486
e 336 546
e 337 355
e 338 356
e 339 349
e 339 560
e 340 353
e 340 357
e 340 367
e 342 351
e 343 345
e 344 462
e 344 491
e 344 582
e 346 466
e 347 416
e 348 352
e 348 515
e 349 467
e 349 516
e 349 562
e 350 421
e 350 565
e 351 471
e 352 527
e 352 616
e 353 357
e 353 423
e 354 531
e 354 620
e 357 429
e 357 523
e 357 569
e 357 610
e 358 366
e 358 587
e 359 364
e 359 368
e 359 543
e 360 365
e 361 377
e 361 436
e 361 460
e 361 489
e 362 367
e 362 400
e 362 506
e 363 379
e 363 438
e 363 462
e 363 491
e 364 368
e 364 381
e 364 440
e 364 464
e 364 493
e 368 464
e 368 493
e 368 584
e 369 377
e 371 378
e 371 632
e 372 385
e 372 591
e 373 379
e 374 381
e 375 382
e 376 386
e 377 436
e 378 437
e 379 438
e 380 439
e 381 440
e 382 441
e 383 408
e 383 590
e 384 392
e 384 418
e 384 495
e 384 631
e 385 394
e 385 447
e 385 476
e 385 575
e 385 591
e 386 425
e 386 451
e 386 480
e 386 579
e 387 427
e 387 498
e 388 416
e 389 400
e 389 423
e 389 429
e 389 596
e 390 453
e 390 482
e 390 573
e 391 398
e 392 418
e 393 420
e 394 455
e 394 484
e 395 412
e 396 433
e 396 440
e 396 457
e 396 486
e 396 546
e 397 426
e 397 548
e 399 410
e 400 423
e 400 429
e 400 506
e 401 432
e 402 434
e 403 411
e 403 424
e 403 430
e 403 439
e 403 463
e 403 492
e 403 583
e 403 602
e 403 640
e 404 413
e 405 422
e 405 511
e 406 441
e 406 465
e 406 494
e 406 585
e 407 415
e 407 436
e 407 460
e 407 489
e 407 580
e 409 417
e 409 513
e 411 424
e 411 430
e 411 439
e 411 463
e 411 492
e 411 583
e 412 552
e 413 553
e 414 421
e 414 431
e 415 436
e 415 514
e 418 442
e 419 438
e 419 517
e 420 519
e 421 431
e 421 565
e 422 521
e 423 429
e 424 430
e 424 439
e 424 468
e 424 530
e 424 619
e 425 471
e 425 534
e 425 623
e 428 437
e 428 609
e 429 523
e 429 569
e 429 610
e 430 439
e 430 468
e 430 472
e 433 440
e 435 524
e 444 452
e 444 460
e 444 473
e 444 634
e 445 453
e 445 466
e 445 474
e 446 454
e 446 461
e 446 475
e 446 632
e 447 455
e 447 467
e 447 476
e 447 591
e 448 456
e 448 462
e 448 477
e 448 500
e 449 457
e 449 464
e 449 478
e 449 598
e 450 458
e 450 465
e 450 470
e 450 479
e 451 459
e 451 471
e 451 480
e 452 460
e 452 481
e 453 466
e 453 482
e 454 461
e 454 483
e 455 467
e 455 484
e 456 462
e 456 485
e 457 464
e 457 486
e 457 546
e 458 465
e 458 470
e 458 487
e 458 547
e 459 471
e 459 488
e 460 489
e 461 490
e 462 491
e 463 468
e 463 492
e 463 602
e 463 640
e 464 493
e 465 470
e 465 494
e 467 516
e 467 562
e 467 566
e 467 568
e 468 472
e 469 605
e 470 612
e 471 613
e 473 481
e 473 489
e 473 634
e 474 482
e 475 483
e 475 490
e 475 632
e 476 484
e 476 591
e 477 485
e 477 491
e 477 500
e 478 486
e 478 493
e 478 598
e 479 487
e 479 494
e 480 488
e 481 489
e 483 490
e 485 491
e 486 493
e 486 546
e 487 494
e 487 547
e 492 602
e 492 640
e 495 509
e 495 631
e 496 518
e 497 504
e 497 507
e 497 593
e 499 512
e 500 517
e 500 529
e 500 576
e 501 510
e 501 519
e 502 522
e 502 524
e 503 513
e 504 507
e 505 532
e 506 523
e 507 561
e 508 526
e 508 600
e 509 601
e 510 519
e 510 603
e 511 521
e 512 550
e 514 525
e 515 527
e 516 528
e 516 562
e 517 529
e 518 564
e 520 531
e 520 604
e 522 524
e 523 569
e 523 610
e 525 614
e 526 615
e 527 616
e 528 566
e 528 617
e 529 618
e 530 619
e 531 620
e 532 621
e 533 622
e 534 623
e 535 549
e 536 545
e 536 551
e 537 540
e 538 541
e 539 555
e 539 558
e 540 629
e 542 553
e 542 559
e 542 589
e 543 546
e 544 548
e 545 551
e 556 572
e 556 580
e 556 624
e 557 560
e 557 562
e 557 566
e 557 568
e 557 575
e 558 579
e 559 571
e 559 589
e 560 562
e 560 566
e 560 568
e 560 575
e 561 565
e 561 567
e 562 566
e 562 568
e 562 575
e 563 569
e 564 570
e 565 567
e 566 568
e 566 575
e 566 617
e 567 608
e 568 575
e 569 610
e 572 580
e 572 634
e 574 581
e 574 632
e 575 591
e 576 582
e 577 584
e 577 598
e 578 585
e 583 602
e 583 640
e 586 590
e 587 595
e 588 592
e 588 630
e 591 617
e 593 597
e 593 608
e 594 599
e 594 605
e 594 621
e 596 610
e 597 608
e 598 604
e 598 620
e 599 605
e 599 621
e 599 637
e 600 615
e 601 606
e 602 619
e 602 640
e 603 607
e 604 620
e 605 621
e 609 616
e 611 618
e 612 622
e 613 623
e 624 634
e 625 638
e 626 637
e 627 633
e 628 631
e 629 635
e 629 639
e 630 636
e 635 639
w 1 877
w 2 122
w 3 38
w 4 961
w 5 775
w 6 11
w 7 961
w 8 26
w 9 46
w 10 116
w 11 874
w 12 390
w 13 385
w 14 224
w 15 953
w 16 5
w 17 491
w 18 704
w 19 844
w 20 390
w 21 609
w 22 333
w 23 552
w 24 113
w 25 650
w 26 746
w 27 447
w 28 666
w 29 295
w 30 38
w 31 155
w 32 333
w 33 333
w 34 333
w 35 7
w 36 333
w 37 333
w 38 166
w 39 158
w 40 333
w 41 333
w 42 333
w 43 7
w 44 333
w 45 333
w 46 166
w 47 158
w 48 333
w 49 333
w 50 333
w 51 333
w 52 333
w 53 333
w 54 333
w 55 333
w 56 333
w 57 333
w 58 333
w 59 333
w 60 242
w 61 853
w 62 903
w 63 333
w 64 169
w 65 381
w 66 526
w 67 660
w 68 813
w 69 116
w 70 224
w 71 666
w 72 992
w 73 543
w 74 456
w 75 98
w 76 775
w 77 125
w 78 333
w 79 83
w 80 618
w 81 657
w 82 640
w 83 666
w 84 666
w 85 46
w 86 666
w 87 17
w 88 146
w 89 456
w 90 359
w 91 96
w 92 543
w 93 68
w 94 597
w 95 333
w 96 333
w 97 473
w 98 192
w 99 381
w 100 16
w 101 978
w 102 71
w 103 666
w 104 333
w 105 563
w 106 736
w 107 841
w 108 858
w 109 691
w 110 103
w 111 666
w 112 500
w 113 953
w 114 289
w 115 500
w 116 115
w 117 141
w 118 790
w 119 658
w 120 551
w 121 31
w 122 254
w 123 46
w 124 666
w 125 499
w 126 710
w 127 789
w 128 618
w 129 21
w 130 132
w 131 436
w 132 294
w 133 285
w 134 210
w 135 270
w 136 500
w 137 209
w 138 140
w 139 879
w 140 341
w 141 658
w 142 444
w 143 43
w 144 263
w 145 705
w 146 500
w 147 42
w 148 104
w 149 276
w 150 666
w 151 484
w 152 332
w 153 516
w 154 666
w 155 333
w 156 666
w 157 771
w 158 573
w 159 970
w 160 723
w 161 887
w 162 178
w 163 961
w 164 567
w 165 666
w 166 724
w 167 532
w 168 467
w 169 229
w 170 99
w 171 112
w 172 55
w 173 228
w 174 499
w 175 38
w 176 432
w 177 29
w 178 275
w 179 134
w 180 99
w 181 483
w 182 116
w 183 166
w 184 43
w 185 830
w 186 125
w 187 833
w 188 166
w 189 188
w 190 482
w 191 29
w 192 666
w 193 333
w 194 163
w 195 836
w 196 239
w 197 874
w 198 927
w 199 163
w 200 333
w 201 380
w 202 666
w 203 517
w 204 148
w 205 285
w 206 619
w 207 811
w 208 169
w 209 400
w 210 233
w 211 599
w 212 166
w 213 956
w 214 43
w 215 666
w 216 526
w 217 760
w 218 35
w 219 11
w 220 21
w 221 644
w 222 537
w 223 4
w 224 666
w 225 140
w 226 462
w 227 666
w 228 859
w 229 333
w 230 333
w 231 333
w 232 333
w 233 333
w 234 333
w 235 53
w 236 228
w 237 40
w 238 318
w 239 192
w 240 321
w 241 166
w 242 771
w 243 340
w 244 333
w 245 359
w 246 669
w 247 637
w 248 333
w 249 333
w 250 333
w 251 7
w 252 333
w 253 333
w 254 166
w 255 158
w 256 333
w 257 333
w 258 333
w 259 333
w 260 333
w 261 333
w 262 314
w 263 476
w 264 199
w 265 833
w 266 195
w 267 543
w 268 108
w 269 927
w 270 72
w 271 166
w 272 725
w 273 217
w 274 666
w 275 8
w 276 324
w 277 468
w 278 800
w 279 991
w 280 666
w 281 72
w 282 204
w 283 333
w 284 927
w 285 78
w 286 456
w 287 21
w 288 553
w 289 484
w 290 333
w 291 285
w 292 321
w 293 390
w 294 380
w 295 507
w 296 887
w 297 381
w 298 657
w 299 961
w 300 833
w 301 254
w 302 709
w 303 35
w 304 227
w 305 772
w 306 446
w 307 761
w 308 227
w 309 342
w 310 222
w 311 619
w 312 238
w 313 142
w 314 290
w 315 112
w 316 333
w 317 38
w 318 154
w 319 456
w 320 333
w 321 333
w 322 333
w 323 7
w 324 333
w 325 333
w 326 166
w 327 158
w 328 307
w 329 551
w 330 141
w 331 700
w 332 75
w 333 333
w 334 666
w 335 427
w 336 500
w 337 72
w 338 134
w 339 691
w 340 849
w 341 448
w 342 257
w 343 13
w 344 154
w 345 845
w 346 666
w 347 240
w 348 37
w 349 308
w 350 80
w 351 666
w 352 295
w 353 15
w 354 500
w 355 226
w 356 865
w 357 134
w 358 491
w 359 285
w 360 222
w 361 449
w 362 58
w 363 666
w 364 47
w 365 777
w 366 508
w 367 150
w 368 666
w 369 333
w 370 333
w 371 333
w 372 7
w 373 333
w 374 333
w 375 166
w 376 158
w 377 333
w 378 333
w 379 333
w 380 333
w 381 333
w 382 333
w 383 619
w 384 75
w 385 7
w 386 841
w 387 456
w 388 473
w 389 526
w 390 411
w 391 174
w 392 896
w 393 517
w 394 992
w 395 751
w 396 116
w 397 140
w 398 825
w 399 614
w 400 7
w 401 192
w 402 359
w 403 131
w 404 982
w 405 218
w 406 666
w 407 166
w 408 380
w 409 459
w 410 385
w 411 333
w 412 248
w 413 17
w 414 8
w 415 500
w 416 526
w 417 540
w 418 28
w 419 666
w 420 482
w 421 474
w 422 781
w 423 326
w 424 166
w 425 103
w 426 859
w 427 543
w 428 666
w 429 140
w 430 34
w 431 516
w 432 807
w 433 550
w 434 640
w 435 281
w 436 333
w 437 333
w 438 333
w 439 333
w 440 333
w 441 333
w 442 903
w 443 446
w 444 333
w 445 333
w 446 333
w 447 7
w 448 333
w 449 333
w 450 166
w 451 158
w 452 333
w 453 333
w 454 333
w 455 7
w 456 333
w 457 333
w 458 166
w 459 158
w 460 333
w 461 333
w 462 333
w 463 333
w 464 333
w 465 333
w 466 333
w 467 333
w 468 333
w 469 333
w 470 333
w 471 333
w 472 631
w 473 333
w 474 333
w 475 333
w 476 7
w 477 333
w 478 333
w 479 166
w 480 158
w 481 333
w 482 333
w 483 333
w 484 7
w 485 333
w 486 333
w 487 166
w 488 158
w 489 333
w 490 333
w 491 333
w 492 333
w 493 333
w 494 333
w 495 353
w 496 883
w 497 706
w 498 55
w 499 339
w 500 359
w 501 263
w 502 38
w 503 272
w 504 227
w 505 499
w 506 933
w 507 66
w 508 500
w 509 500
w 510 218
w 511 781
w 512 660
w 513 150
w 514 500
w 515 500
w 516 225
w 517 140
w 518 116
w 519 517
w 520 500
w 521 218
w 522 281
w 523 66
w 524 680
w 525 500
w 526 500
w 527 500
w 528 500
w 529 500
w 530 500
w 531 500
w 532 500
w 533 500
w 534 500
w 535 978
w 536 545
w 537 523
w 538 228
w 539 724
w 540 4
w 541 771
w 542 228
w 543 714
w 544 281
w 545 64
w 546 50
w 547 166
w 548 718
w 549 21
w 550 1
w 551 390
w 552 198
w 553 12
w 554 99
w 555 275
w 556 248
w 557 476
w 558 275
w 559 222
w 560 308
w 561 698
w 562 132
w 563 867
w 564 447
w 565 150
w 566 58
w 567 151
w 568 15
w 569 132
w 570 552
w 571 298
w 572 333
w 573 333
w 574 333
w 575 7
w 576 333
w 577 333
w 578 166
w 579 158
w 580 333
w 581 333
w 582 333
w 583 333
w 584 333
w 585 333
w 586 618
w 587 455
w 588 376
w 589 549
w 590 380
w 591 500
w 592 623
w 593 162
w 594 333
w 595 544
w 596 473
w 597 483
w 598 285
w 599 99
w 600 500
w 601 500
w 602 500
w 603 263
w 604 214
w 605 66
w 606 120
w 607 736
w 608 143
w 609 333
w 610 526
w 611 140
w 612 500
w 613 500
w 614 500
w 615 500
w 616 500
w 617 500
w 618 500
w 619 500
w 620 500
w 621 500
w 622 500
w 623 499
w 624 437
w 625 790
w 626 757
w 627 146
w 628 983
w 629 16
w 630 551
w 631 16
w 632 129
w 633 853
w 634 562
w 635 122
w 636 448
w 637 242
w 638 209
w 639 755
w 640 34
n 1 C2620
n 2 C2623
n 3 C2641
n 4 C2646
n 5 C2668
n 6 C2680
n 7 C2683
n 8 C2691
n 9 C2700
n 10 C2704
n 11 C2722
n 12 C2745
n 13 C2749
n 14 C2752
n 15 C2784
n 16 C2788
n 17 C2791
n 18 C2813
n 19 C2820
n 20 C2828
n 21 C2829
n 22 C2841
n 23 C2842
n 24 C2848
n 25 C2958
n 26 C2965
n 27 C2968
n 28 C2976
n 29 C2981
n 30 C2982
n 31 C2985
n 32 C3032
n 33 C3033
n 34 C3041
n 35 C3042
n 36 C3050
n 37 C3059
n 38 C3068
n 39 C3069
n 40 C3116
n 41 C3117
n 42 C3125
n 43 C3126
n 44 C3134
n 45 C3143
n 46 C3152
n 47 C3153
n 48 C3200
n 49 C3209
n 50 C3218
n 51 C3219
n 52 C3227
n 53 C3236
n 54 C3327
n 55 C3336
n 56 C3345
n 57 C3354
n 58 C3362
n 59 C3363
n 60 C3396
n 61 C3401
n 62 C3403
n 63 C3470
n 64 C3476
n 65 C3479
n 66 C3497
n 67 C3498
n 68 C3518
n 69 C3540
n 70 C3544
n 71 C3545
n 72 C3546
n 73 C3573
n 74 C3577
n 75 C3585
n 76 C3586
n 77 C3604
n 78 C3629
n 79 C3646
n 80 C3647
n 81 C3648
n 82 C3651
n 83 C3656
n 84 C3662
n 85 C3666
n 86 C3680
n 87 C3686
n 88 C3695
n 89 C3699
n 90 C3735
n 91 C3739
n 92 C3745
n 93 C3753
n 94 C3772
n 95 C3782
n 96 C3830
n 97 C3833
n 98 C3856
n 99 C4297
n 100 C4299
n 101 C4300
n 102 C4313
n 103 C4334
n 104 C4355
n 105 C4396
n 106 C4399
n 107 C4413
n 108 C4416
n 109 C4424
n 110 C4425
n 111 C4445
n 112 C4446
n 113 C4464
n 114 C4492
n 115 C4496
n 116 C4497
n 117 C4500
n 118 C4546
n 119 C4554
n 120 C4565
n 121 C4586
n 122 C4587
n 123 C4590
n 124 C4595
n 125 C4614
n 126 C4618
n 127 C4621
n 128 C4633
n 129 C4636
n 130 C4644
n 131 C4648
n 132 C4653
n 133 C4655
n 134 C4663
n 135 C4670
n 136 C4671
n 137 C4672
n 138 C4676
n 139 C4677
n 140 C4680
n 141 C4686
n 142 C4688
n 143 C4691
n 144 C4693
n 145 C4695
n 146 C4706
n 147 C4707
n 148 C5258
n 149 C5259
n 150 C5267
n 151 C5268
n 152 C5269
n 153 C5283
n 154 C5300
n 155 C5308
n 156 C5318
n 157 C5322
n 158 C5324
n 159 C5334
n 160 C5469
n 161 C5483
n 162 C5486
n 163 C5497
n 164 C5499
n 165 C5504
n 166 C5505
n 167 C5518
n 168 C5545
n 169 C5552
n 170 C5562
n 171 C5567
n 172 C5570
n 173 C5574
n 174 C5580
n 175 C5581
n 176 C5583
n 177 C5586
n 178 C5589
n 179 C5602
n 180 C5612
n 181 C5619
n 182 C5621
n 183 C5630
n 184 C6119
n 185 C6122
n 186 C6123
n 187 C6134
n 188 C6139
n 189 C6190
n 190 C6205
n 191 C6216
n 192 C6224
n 193 C6225
n 194 C6227
n 195 C6231
n 196 C6242
n 197 C6249
n 198 C6258
n 199 C6273
n 200 C6275
n 201 C6313
n 202 C6317
n 203 C6331
n 204 C6341
n 205 C6345
n 206 C6355
n 207 C6358
n 208 C6374
n 209 C6378
n 210 C6395
n 211 C6420
n 212 C6428
n 213 C6455
n 214 C6468
n 215 C6477
n 216 C6479
n 217 C6494
n 218 C6509
n 219 C6513
n 220 C6897
n 221 C6981
n 222 C6989
n 223 C7005
n 224 C7008
n 225 C7280
n 226 C7283
n 227 C7293
n 228 C7322
n 229 C7737
n 230 C7746
n 231 C7755
n 232 C7764
n 233 C7772
n 234 C7773
n 235 C7831
n 236 C7842
n 237 C8023
n 238 C8162
n 239 C8174
n 240 C8191
n 241 C8192
n 242 C8220
n 243 C8229
n 244 C8267
n 245 C8271
n 246 C8273
n 247 C8275
n 248 C8366
n 249 C8367
n 250 C8375
n 251 C8376
n 252 C8384
n 253 C8393
n 254 C8402
n 255 C8403
n 256 C8534
n 257 C8543
n 258 C8552
n 259 C8553
n 260 C8561
n 261 C8570
n 262 C8660
n 263 C8668
n 264 C8852
n 265 C8864
n 266 C8865
n 267 C8869
n 268 C8878
n 269 C8901
n 270 C8904
n 271 C8906
n 272 C8907
n 273 C8912
n 274 C8931
n 275 C8937
n 276 C8938
n 277 C8996
n 278 C9020
n 279 C9021
n 280 C9023
n 281 C9027
n 282 C9089
n 283 C9099
n 284 C9114
n 285 C9117
n 286 C9121
n 287 C9627
n 288 C9633
n 289 C9636
n 290 C9644
n 291 C9653
n 292 C9667
n 293 C9669
n 294 C9673
n 295 C9678
n 296 C9683
n 297 C9695
n 298 C9696
n 299 C9697
n 300 C9704
n 301 C9711
n 302 C9714
n 303 C9716
n 304 C9734
n 305 C9735
n 306 C9801
n 307 C9802
n 308 C9819
n 309 C9822
n 310 C9835
n 311 C9841
n 312 C9844
n 313 C9876
n 314 C9882
n 315 C9893
n 316 C9896
n 317 C9907
n 318 C9918
n 319 C9919
n 320 C10046
n 321 C10047
n 322 C10055
n 323 C10056
n 324 C10064
n 325 C10073
n 326 C10082
n 327 C10083
n 328 C10568
n 329 C10571
n 330 C10590
n 331 C10623
n 332 C10629
n 333 C10635
n 334 C10643
n 335 C10652
n 336 C10661
n 337 C10665
n 338 C10684
n 339 C10686
n 340 C10734
n 341 C10739
n 342 C10755
n 343 C10758
n 344 C10778
n 345 C10800
n 346 C10803
n 347 C10805
n 348 C10811
n 349 C10812
n 350 C10827
n 351 C10839
n 352 C10853
n 353 C10860
n 354 C10871
n 355 C10875
n 356 C10894
n 357 C10902
n 358 C11359
n 359 C11375
n 360 C11389
n 361 C11558
n 362 C11574
n 363 C11576
n 364 C11585
n 365 C11599
n 366 C11611
n 367 C11616
n 368 C11627
n 369 C12692
n 370 C12693
n 371 C12701
n 372 C12702
n 373 C12710
n 374 C12719
n 375 C12728
n 376 C12729
n 377 C12860
n 378 C12869
n 379 C12878
n 380 C12879
n 381 C12887
n 382 C12896
n 383 C13159
n 384 C13161
n 385 C13164
n 386 C13191
n 387 C13195
n 388 C13199
n 389 C13212
n 390 C13239
n 391 C13242
n 392 C13245
n 393 C13261
n 394 C13290
n 395 C13300
n 396 C13307
n 397 C13320
n 398 C13326
n 399 C13333
n 400 C13338
n 401 C13348
n 402 C13353
n 403 C13383
n 404 C13388
n 405 C13394
n 406 C13400
n 407 C13406
n 408 C13411
n 409 C13412
n 410 C13417
n 411 C13425
n 412 C13426
n 413 C13430
n 414 C13431
n 415 C13448
n 416 C13451
n 417 C13454
n 418 C13455
n 419 C13466
n 420 C13471
n 421 C13473
n 422 C13478
n 423 C13506
n 424 C13509
n 425 C13527
n 426 C13530
n 427 C13531
n 428 C13541
n 429 C13548
n 430 C13551
n 431 C13557
n 432 C13558
n 433 C13559
n 434 C13563
n 435 C13566
n 436 C13742
n 437 C13751
n 438 C13760
n 439 C13761
n 440 C13769
n 441 C13778
n 442 C14337
n 443 C14338
n 444 C14498
n 445 C14499
n 446 C14507
n 447 C14508
n 448 C14516
n 449 C14525
n 450 C14534
n 451 C14535
n 452 C14582
n 453 C14583
n 454 C14591
n 455 C14592
n 456 C14600
n 457 C14609
n 458 C14618
n 459 C14619
n 460 C14666
n 461 C14675
n 462 C14684
n 463 C14685
n 464 C14693
n 465 C14702
n 466 C14793
n 467 C14802
n 468 C14811
n 469 C14820
n 470 C14828
n 471 C14829
n 472 C15315
n 473 C16262
n 474 C16263
n 475 C16271
n 476 C16272
n 477 C16280
n 478 C16289
n 479 C16298
n 480 C16299
n 481 C16346
n 482 C16347
n 483 C16355
n 484 C16356
n 485 C16364
n 486 C16373
n 487 C16382
n 488 C16383
n 489 C16430
n 490 C16439
n 491 C16448
n 492 C16449
n 493 C16457
n 494 C16466
n 495 C16689
n 496 C16702
n 497 C16707
n 498 C16723
n 499 C16728
n 500 C16742
n 501 C16747
n 502 C16758
n 503 C16772
n 504 C16791
n 505 C16794
n 506 C16866
n 507 C16875
n 508 C16893
n 509 C16899
n 510 C16915
n 511 C16922
n 512 C16938
n 513 C16940
n 514 C16976
n 515 C16985
n 516 C16986
n 517 C16994
n 518 C16996
n 519 C16999
n 520 C17003
n 521 C17006
n 522 C17010
n 523 C17076
n 524 C17094
n 525 C17396
n 526 C17397
n 527 C17405
n 528 C17406
n 529 C17414
n 530 C17415
n 531 C17423
n 532 C17424
n 533 C17432
n 534 C17433
n 535 C17481
n 536 C17487
n 537 C17488
n 538 C17502
n 539 C17517
n 540 C17530
n 541 C17544
n 542 C17546
n 543 C17549
n 544 C17562
n 545 C17697
n 546 C17717
n 547 C17726
n 548 C17730
n 549 C17817
n 550 C17820
n 551 C17823
n 552 C17836
n 553 C17840
n 554 C17844
n 555 C17853
n 556 C18362
n 557 C18372
n 558 C18399
n 559 C18428
n 560 C18624
n 561 C18639
n 562 C18750
n 563 C18756
n 564 C18760
n 565 C18765
n 566 C18792
n 567 C18807
n 568 C18834
n 569 C18840
n 570 C18844
n 571 C18848
n 572 C18950
n 573 C18951
n 574 C18959
n 575 C18960
n 576 C18968
n 577 C18977
n 578 C18986
n 579 C18987
n 580 C19118
n 581 C19127
n 582 C19136
n 583 C19137
n 584 C19145
n 585 C19154
n 586 C19291
n 587 C19297
n 588 C19307
n 589 C19310
n 590 C19333
n 591 C19338
n 592 C19349
n 593 C19353
n 594 C19356
n 595 C19381
n 596 C19386
n 597 C19395
n 598 C19397
n 599 C19398
n 600 C19539
n 601 C19545
n 602 C19557
n 603 C19561
n 604 C19649
n 605 C19650
n 606 C19671
n 607 C19687
n 608 C19689
n 609 C19715
n 610 C19722
n 611 C19724
n 612 C19742
n 613 C19743
n 614 C20042
n 615 C20043
n 616 C20051
n 617 C20052
n 618 C20060
n 619 C20061
n 620 C20069
n 621 C20070
n 622 C20078
n 623 C20079
n 624 C20126
n 625 C20128
n 626 C20154
n 627 C20159
n 628 C20175
n 629 C20176
n 630 C20189
n 631 C20217
n 632 C20219
n 633 C20243
n 634 C20252
n 635 C20260
n 636 C20273
n 637 C20280
n 638 C20422
n 639 C20428
n 640 C20439
o 1 576
o 2 579
o 3 597
o 4 602
o 5 624
o 6 636
o 7 639
o 8 647
o 9 656
o 10 660
o 11 678
o 12 701
o 13 705
o 14 708
o 15 740
o 16 744
o 17 747
o 18 769
o 19 776
o 20 784
o 21 785
o 22 797
o 23 798
o 24 804
o 25 914
o 26 921
o 27 924
o 28 932
o 29 937
o 30 938
o 31 941
o 32 988
o 33 989
o 34 997
o 35 998
o 36 1006
o 37 1015
o 38 1024
o 39 1025
o 40 1072
o 41 1073
o 42 1081
o 43 1082
o 44 1090
o 45 1099
o 46 1108
o 47 1109
o 48 1156
o 49 1165
o 50 1174
o 51 1175
o 52 1183
o 53 1192
o 54 1283
o 55 1292
o 56 1301
o 57 1310
o 58 1318
o 59 1319
o 60 1352
o 61 1357
o 62 1359
o 63 1426
o 64 1432
o 65 1435
o 66 1453
o 67 1454
o 68 1474
o 69 1496
o 70 1500
o 71 1501
o 72 1502
o 73 1529
o 74 1533
o 75 1541
o 76 1542
o 77 1560
o 78 1585
o 79 1602
o 80 1603
o 81 1604
o 82 1607
o 83 1612
o 84 1618
o 85 1622
o 86 1636
o 87 1642
o 88 1651
o 89 1655
o 90 1691
o 91 1695
o 92 1701
o 93 1709
o 94 1728
o 95 1738
o 96 1786
o 97 1789
o 98 1812
o 99 2253
o 100 2255
o 101 2256
o 102 2269
o 103 2290
o 104 2311
o 105 2352
o 106 2355
o 107 2369
o 108 2372
o 109 2380
o 110 2381
o 111 2401
o 112 2402
o 113 2420
o 114 2448
o 115 2452
o 116 2453
o 117 2456
o 118 2502
o 119 2510
o 120 2521
o 121 2542
o 122 2543
o 123 2546
o 124 2551
o 125 2570
o 126 2574
o 127 2577
o 128 2589
o 129 2592
o 130 2600
o 131 2604
o 132 2609
o 133 2611
o 134 2619
o 135 2626
o 136 2627
o 137 2628
o 138 2632
o 139 2633
o 140 2636
o 141 2642
o 142 2644
o 143 2647
o 144 2649
o 145 2651
o 146 2662
o 147 2663
o 148 3214
o 149 3215
o 150 3223
o 151 3224
o 152 3225
o 153 3239
o 154 3256
o 155 3264
o 156 3274
o 157 3278
o 158 3280
o 159 3290
o 160 3425
o 161 3439
o 162 3442
o 163 3453
o 164 3455
o 165 3460
o 166 3461
o 167 3474
o 168 3501
o 169 3508
o 170 3518
o 171 3523
o 172 3526
o 173 3530
o 174 3536
o 175 3537
o 176 3539
o 177 3542
o 178 3545
o 179 3558
o 180 3568
o 181 3575
o 182 3577
o 183 3586
o 184 4075
o 185 4078
o 186 4079
o 187 4090
o 188 4095
o 189 4146
o 190 4161
o 191 4172
o 192 4180
o 193 4181
o 194 4183
o 195 4187
o 196 4198
o 197 4205
o 198 4214
o 199 4229
o 200 4231
o 201 4269
o 202 4273
o 203 4287
o 204 4297
o 205 4301
o 206 4311
o 207 4314
o 208 4330
o 209 4334
o 210 4351
o 211 4376
o 212 4384
o 213 4411
o 214 4424
o 215 4433
o 216 4435
o 217 4450
o 218 4465
o 219 4469
o 220 4853
o 221 4937
o 222 4945
o 223 4961
o 224 4964
o 225 5236
o 226 5239
o 227 5249
o 228 5278
o 229 5693
o 230 5702
o 231 5711
o 232 5720
o 233 5728
o 234 5729
o 235 5787
o 236 5798
o 237 5979
o 238 6118
o 239 6130
o 240 6147
o 241 6148
o 242 6176
o 243 6185
o 244 6223
o 245 6227
o 246 6229
o 247 6231
o 248 6322
o 249 6323
o 250 6331
o 251 6332
o 252 6340
o 253 6349
o 254 6358
o 255 6359
o 256 6490
o 257 6499
o 258 6508
o 259 6509
o 260 6517
o 261 6526
o 262 6616
o 263 6624
o 264 6808
o 265 6820
o 266 6821
o 267 6825
o 268 6834
o 269 6857
o 270 6860
o 271 6862
o 272 6863
o 273 6868
o 274 6887
o 275 6893
o 276 6894
o 277 6952
o 278 6976
o 279 6977
o 280 6979
o 281 6983
o 282 7045
o 283 7055
o 284 7070
o 285 7073
o 286 7077
o 287 7583
o 288 7589
o 289 7592
o 290 7600
o 291 7609
o 292 7623
o 293 7625
o 294 7629
o 295 7634
o 296 7639
o 297 7651
o 298 7652
o 299 7653
o 300 7660
o 301 7667
o 302 7670
o 303 7672
o 304 7690
o 305 7691
o 306 7757
o 307 7758
o 308 7775
o 309 7778
o 310 7791
o 311 7797
o 312 7800
o 313 7832
o 314 7838
o 315 7849
o 316 7852
o 317 7863
o 318 7874
o 319 7875
o 320 8002
o 321 8003
o 322 8011
o 323 8012
o 324 8020
o 325 8029
o 326 8038
o 327 8039
o 328 8524
o 329 8527
o 330 8546
o 331 8579
o 332 8585
o 333 8591
o 334 8599
o 335 8608
o 336 8617
o 337 8621
o 338 8640
o 339 8642
o 340 8690
o 341 8695
o 342 8711
o 343 8714
o 344 8734
o 345 8756
o 346 8759
o 347 8761
o 348 8767
o 349 8768
o 350 8783
o 351 8795
o 352 8809
o 353 8816
o 354 8827
o 355 8831
o 356 8850
o 357 8858
o 358 9315
o 359 9331
o 360 9345
o 361 9514
o 362 9530
o 363 9532
o 364 9541
o 365 9555
o 366 9567
o 367 9572
o 368 9583
o 369 10648
o 370 10649
o 371 10657
o 372 10658
o 373 10666
o 374 10675
o 375 10684
o 376 10685
o 377 10816
o 378 10825
o 379 10834
o 380 10835
o 381 10843
o 382 10852
o 383 11115
o 384 11117
o 385 11120
o 386 11147
o 387 11151
o 388 11155
o 389 11168
o 390 11195
o 391 11198
o 392 11201
o 393 11217
o 394 11246
o 395 11256
o 396 11263
o 397 11276
o 398 11282
o 399 11289
o 400 11294
o 401 11304
o 402 11309
o 403 11339
o 404 11344
o 405 11350
o 406 11356
o 407 11362
o 408 11367
o 409 11368
o 410 11373
o 411 11381
o 412 11382
o 413 11386
o 414 11387
o 415 11404
o 416 11407
o 417 11410
o 418 11411
o 419 11422
o 420 11427
o 421 11429
o 422 11434
o 423 11462
o 424 11465
o 425 11483
o 426 11486
o 427 11487
o 428 11497
o 429 11504
o 430 11507
o 431 11513
o 432 11514
o 433 11515
o 434 11519
o 435 11522
o 436 11698
o 437 11707
o 438 11716
o 439 11717
o 440 11725
o 441 11734
o 442 12293
o 443 12294
o 444 12454
o 445 12455
o 446 12463
o 447 12464
o 448 12472
o 449 12481
o 450 12490
o 451 12491
o 452 12538
o 453 12539
o 454 12547
o 455 12548
o 456 12556
o 457 12565
o 458 12574
o 459 12575
o 460 12622
o 461 12631
o 462 12640
o 463 12641
o 464 12649
o 465 12658
o 466 12749
o 467 12758
o 468 12767
o 469 12776
o 470 12784
o 471 12785
o 472 13271
o 473 14218
o 474 14219
o 475 14227
o 476 14228
o 477 14236
o 478 14245
o 479 14254
o 480 14255
o 481 14302
o 482 14303
o 483 14311
o 484 14312
o 485 14320
o 486 14329
o 487 14338
o 488 14339
o 489 14386
o 490 14395
o 491 14404
o 492 14405
o 493 14413
o 494 14422
o 495 14645
o 496 14658
o 497 14663
o 498 14679
o 499 14684
o 500 14698
o 501 14703
o 502 14714
o 503 14728
o 504 14747
o 505 14750
o 506 14822
o 507 14831
o 508 14849
o 509 14855
o 510 14871
o 511 14878
o 512 14894
o 513 14896
o 514 14932
o 515 14941
o 516 14942
o 517 14950
o 518 14952
o 519 14955
o 520 14959
o 521 14962
o 522 14966
o 523 15032
o 524 15050
o 525 15352
o 526 15353
o 527 15361
o 528 15362
o 529 15370
o 530 15371
o 531 15379
o 532 15380
o 533 15388
o 534 15389
o 535 15437
o 536 15443
o 537 15444
o 538 15458
o 539 15473
o 540 15486
o 541 15500
o 542 15502
o 543 15505
o 544 15518
o 545 15653
o 546 15673
o 547 15682
o 548 15686
o 549 15773
o 550 15776
o 551 15779
o 552 15792
o 553 15796
o 554 15800
o 555 15809
o 556 16318
o 557 16328
o 558 16355
o 559 16384
o 560 16580
o 561 16595
o 562 16706
o 563 16712
o 564 16716
o 565 16721
o 566 16748
o 567 16763
o 568 16790
o 569 16796
o 570 16800
o 571 16804
o 572 16906
o 573 16907
o 574 16915
o 575 16916
o 576 16924
o 577 16933
o 578 16942
o 579 16943
o 580 17074
o 581 17083
o 582 17092
o 583 17093
o 584 17101
o 585 17110
o 586 17247
o 587 17253
o 588 17263
o 589 17266
o 590 17289
o 591 17294
o 592 17305
o 593 17309
o 594 17312
o 595 17337
o 596 17342
o 597 17351
o 598 17353
o 599 17354
o 600 17495
o 601 17501
o 602 17513
o 603 17517
o 604 17605
o 605 17606
o 606 17627
o 607 17643
o 608 17645
o 609 17671
o 610 17678
o 611 17680
o 612 17698
o 613 17699
o 614 17998
o 615 17999
o 616 18007
o 617 18008
o 618 18016
o 619 18017
o 620 18025
o 621 18026
o 622 18034
o 623 18035
o 624 18082
o 625 18084
o 626 18110
o 627 18115
o 628 18131
o 629 18132
o 630 18145
o 631 18173
o 632 18175
o 633 18199
o 634 18208
o 635 18216
o 636 18229
o 637 18236
o 638 18378
o 639 18384
o 640 18395
